p cnf 200 300
1 134 0
1 171 0
1 145 0
2 76 0
2 126 0
2 19 0
3 147 0
3 191 0
3 179 0
4 174 0
4 45 0
4 160 0
5 44 0
5 124 0
5 195 0
6 62 0
6 74 0
6 37 0
7 191 0
7 177 0
7 21 0
8 80 0
8 15 0
8 166 0
9 169 0
9 185 0
9 150 0
10 46 0
10 81 0
10 187 0
11 148 0
11 58 0
11 114 0
12 75 0
12 30 0
12 25 0
13 106 0
13 41 0
13 97 0
14 25 0
14 159 0
14 82 0
15 119 0
15 159 0
16 84 0
16 200 0
16 31 0
17 182 0
17 173 0
17 133 0
18 52 0
18 157 0
18 130 0
19 141 0
19 123 0
20 78 0
20 66 0
20 63 0
21 197 0
21 190 0
22 128 0
22 101 0
22 73 0
23 86 0
23 70 0
23 81 0
24 147 0
24 89 0
24 95 0
25 87 0
26 109 0
26 78 0
26 104 0
27 60 0
27 179 0
27 68 0
28 114 0
28 179 0
28 154 0
29 134 0
29 82 0
29 57 0
30 197 0
30 110 0
31 69 0
31 137 0
32 193 0
32 131 0
32 40 0
33 176 0
33 104 0
33 42 0
34 174 0
34 62 0
34 161 0
35 55 0
35 80 0
35 138 0
36 173 0
36 125 0
36 72 0
37 97 0
37 188 0
38 45 0
38 160 0
38 117 0
39 153 0
39 113 0
39 155 0
40 164 0
40 147 0
41 90 0
41 87 0
42 85 0
42 79 0
43 196 0
43 79 0
43 160 0
44 168 0
44 55 0
45 79 0
46 124 0
46 122 0
47 186 0
47 77 0
47 95 0
48 76 0
48 140 0
48 54 0
49 115 0
49 78 0
49 145 0
50 169 0
50 140 0
50 188 0
51 52 0
51 167 0
51 180 0
52 136 0
53 143 0
53 120 0
53 141 0
54 193 0
54 129 0
55 114 0
56 149 0
56 170 0
56 107 0
57 184 0
57 126 0
58 198 0
58 92 0
59 93 0
59 158 0
59 153 0
60 139 0
60 167 0
61 93 0
61 84 0
61 164 0
62 146 0
63 200 0
63 170 0
64 86 0
64 121 0
64 177 0
65 195 0
65 123 0
65 102 0
66 189 0
66 125 0
67 172 0
67 157 0
67 88 0
68 149 0
68 126 0
69 112 0
69 199 0
70 105 0
70 137 0
71 176 0
71 118 0
71 103 0
72 144 0
72 148 0
73 156 0
73 139 0
74 182 0
74 120 0
75 87 0
75 85 0
76 155 0
77 184 0
77 194 0
80 159 0
81 181 0
82 145 0
83 151 0
83 131 0
83 121 0
84 138 0
85 142 0
86 136 0
88 192 0
88 191 0
89 186 0
89 116 0
90 99 0
90 111 0
91 163 0
91 195 0
91 185 0
92 165 0
92 156 0
93 144 0
94 199 0
94 164 0
94 98 0
95 98 0
96 118 0
96 134 0
96 158 0
97 142 0
98 120 0
99 196 0
99 137 0
100 109 0
100 142 0
100 165 0
101 141 0
101 140 0
102 119 0
102 122 0
103 129 0
103 152 0
104 108 0
105 119 0
105 153 0
106 111 0
106 151 0
107 110 0
107 121 0
108 128 0
108 181 0
109 143 0
110 186 0
111 150 0
112 180 0
112 181 0
113 133 0
113 177 0
115 175 0
115 143 0
116 198 0
116 175 0
117 146 0
117 152 0
118 127 0
122 170 0
123 183 0
124 188 0
125 189 0
127 168 0
127 196 0
128 130 0
129 144 0
130 185 0
131 198 0
132 192 0
132 175 0
132 136 0
133 182 0
135 178 0
135 199 0
135 187 0
138 173 0
139 155 0
146 152 0
148 154 0
149 168 0
150 171 0
151 197 0
154 163 0
156 163 0
157 162 0
158 194 0
161 162 0
161 166 0
162 166 0
165 167 0
169 193 0
171 172 0
172 183 0
174 184 0
176 189 0
178 200 0
178 194 0
180 190 0
183 192 0
187 190 0
g -123